1040
1 0 5 521 0 1040 1 1039 1 1038 1 1037 1
2 0 5 522 1 536 1 643 1 734 1 1006 1
3 0 5 523 1 588 1 871 1 699 1 611 1
4 0 5 524 1 831 1 548 1 949 1 667 1
5 0 5 525 1 710 1 968 1 807 1 817 1
6 0 5 526 1 982 1 570 1 699 1 838 1
7 0 5 527 1 530 1 828 1 918 1 558 1
8 0 5 528 1 806 1 1005 1 782 1 784 1
9 0 5 529 1 682 1 976 1 961 1 781 1
10 0 5 530 1 828 1 918 1 633 1 652 1
11 0 5 531 1 694 1 738 1 616 1 716 1
12 0 5 532 1 537 1 651 1 813 1 808 1
13 0 5 533 1 817 1 1007 1 807 1 892 1
14 0 5 534 1 771 1 963 1 613 1 673 1
15 0 5 535 1 704 1 876 1 567 1 847 1
16 0 5 536 1 700 1 1006 1 734 1 656 1
17 0 5 537 1 808 1 651 1 795 1 742 1
18 0 5 538 1 963 1 995 1 585 1 716 1
19 0 5 539 1 867 1 993 1 580 1 809 1
20 0 5 540 1 734 1 869 1 944 1 605 1
21 0 5 541 1 632 1 739 1 591 1 913 1
22 0 5 542 1 918 1 560 1 530 1 948 1
23 0 5 543 1 689 1 716 1 744 1 1007 1
24 0 5 544 1 521 1 966 1 752 1 864 1
25 0 5 545 1 850 1 744 1 543 1 1008 1
26 0 5 546 1 707 1 636 1 555 1 908 1
27 0 5 547 1 660 1 686 1 722 1 999 1
28 0 5 548 1 667 1 940 1 820 1 794 1
29 0 5 549 1 921 1 841 1 1020 1 881 1
30 0 5 550 1 848 1 624 1 701 1 679 1
31 0 5 551 1 964 1 906 1 630 1 638 1
32 0 5 552 1 925 1 809 1 613 1 979 1
33 0 5 553 1 564 1 993 1 592 1 867 1
34 0 5 554 1 723 1 901 1 709 1 681 1
35 0 5 555 1 908 1 674 1 1006 1 636 1
36 0 5 556 1 561 1 839 1 597 1 617 1
37 0 5 557 1 843 1 708 1 812 1 541 1
38 0 5 558 1 1017 1 828 1 598 1 579 1
39 0 5 559 1 899 1 955 1 604 1 715 1
40 0 5 560 1 948 1 934 1 527 1 923 1
41 0 5 561 1 597 1 673 1 617 1 556 1
42 0 5 562 1 679 1 796 1 916 1 832 1
43 0 5 563 1 746 1 908 1 574 1 601 1
44 0 5 564 1 978 1 867 1 592 1 836 1
45 0 5 565 1 704 1 590 1 665 1 754 1
46 0 5 566 1 804 1 906 1 964 1 775 1
47 0 5 567 1 841 1 1020 1 654 1 921 1
48 0 5 568 1 797 1 663 1 898 1 794 1
49 0 5 569 1 592 1 699 1 526 1 523 1
50 0 5 570 1 717 1 982 1 526 1 838 1
51 0 5 571 1 935 1 589 1 886 1 641 1
52 0 5 572 1 1009 1 840 1 675 1 829 1
53 0 5 573 1 846 1 672 1 909 1 986 1
54 0 5 574 1 912 1 908 1 674 1 970 1
55 0 5 575 1 1004 1 849 1 585 1 589 1
56 0 5 576 1 953 1 895 1 1021 1 886 1
57 0 5 577 1 965 1 781 1 678 1 975 1
58 0 5 578 1 673 1 584 1 963 1 860 1
59 0 5 579 1 542 1 633 1 828 1 608 1
60 0 5 580 1 993 1 867 1 553 1 564 1
61 0 5 581 1 755 1 714 1 743 1 798 1
62 0 5 582 1 653 1 839 1 920 1 626 1
63 0 5 583 1 947 1 962 1 745 1 978 1
64 0 5 584 1 860 1 1013 1 578 1 622 1
65 0 5 585 1 534 1 1004 1 575 1 771 1
66 0 5 586 1 910 1 644 1 587 1 821 1
67 0 5 587 1 821 1 804 1 749 1 794 1
68 0 5 588 1 871 1 985 1 778 1 857 1
69 0 5 589 1 571 1 935 1 895 1 1004 1
70 0 5 590 1 688 1 779 1 665 1 565 1
71 0 5 591 1 563 1 557 1 632 1 541 1
72 0 5 592 1 564 1 993 1 553 1 539 1
73 0 5 593 1 1012 1 741 1 804 1 949 1
74 0 5 594 1 698 1 855 1 618 1 674 1
75 0 5 595 1 950 1 655 1 697 1 845 1
76 0 5 596 1 757 1 826 1 622 1 617 1
77 0 5 597 1 561 1 673 1 617 1 647 1
78 0 5 598 1 558 1 1017 1 787 1 828 1
79 0 5 599 1 720 1 905 1 690 1 981 1
80 0 5 600 1 639 1 916 1 896 1 832 1
81 0 5 601 1 755 1 805 1 834 1 798 1
82 0 5 602 1 760 1 729 1 737 1 668 1
83 0 5 603 1 932 1 967 1 691 1 629 1
84 0 5 604 1 715 1 969 1 743 1 637 1
85 0 5 605 1 944 1 798 1 743 1 540 1
86 0 5 606 1 625 1 680 1 677 1 865 1
87 0 5 607 1 960 1 898 1 781 1 682 1
88 0 5 608 1 837 1 633 1 579 1 828 1
89 0 5 609 1 678 1 577 1 842 1 965 1
90 0 5 610 1 933 1 727 1 793 1 699 1
91 0 5 611 1 857 1 523 1 713 1 706 1
92 0 5 612 1 847 1 650 1 887 1 997 1
93 0 5 613 1 895 1 809 1 684 1 979 1
94 0 5 614 1 915 1 952 1 719 1 873 1
95 0 5 615 1 981 1 861 1 971 1 634 1
96 0 5 616 1 531 1 694 1 716 1 738 1
97 0 5 617 1 649 1 596 1 1018 1 870 1
98 0 5 618 1 674 1 740 1 594 1 762 1
99 0 5 619 1 772 1 825 1 979 1 883 1
100 0 5 620 1 691 1 603 1 806 1 629 1
101 0 5 621 1 851 1 827 1 868 1 957 1
102 0 5 622 1 984 1 826 1 623 1 584 1
103 0 5 623 1 894 1 815 1 604 1 715 1
104 0 5 624 1 550 1 701 1 994 1 928 1
105 0 5 625 1 677 1 861 1 680 1 865 1
106 0 5 626 1 731 1 695 1 585 1 927 1
107 0 5 627 1 760 1 573 1 737 1 664 1
108 0 5 628 1 683 1 823 1 692 1 599 1
109 0 5 629 1 620 1 603 1 967 1 698 1
110 0 5 630 1 551 1 906 1 638 1 964 1
111 0 5 631 1 665 1 549 1 783 1 911 1
112 0 5 632 1 591 1 541 1 563 1 739 1
113 0 5 633 1 579 1 837 1 608 1 828 1
114 0 5 634 1 987 1 911 1 677 1 937 1
115 0 5 635 1 703 1 720 1 631 1 549 1
116 0 5 636 1 546 1 707 1 908 1 838 1
117 0 5 637 1 815 1 872 1 604 1 623 1
118 0 5 638 1 989 1 853 1 801 1 551 1
119 0 5 639 1 896 1 916 1 926 1 662 1
120 0 5 640 1 693 1 616 1 531 1 694 1
121 0 5 641 1 589 1 571 1 886 1 702 1
122 0 5 642 1 658 1 1000 1 648 1 601 1
123 0 5 643 1 656 1 522 1 699 1 536 1
124 0 5 644 1 670 1 587 1 917 1 821 1
125 0 5 645 1 811 1 757 1 954 1 955 1
126 0 5 646 1 776 1 966 1 711 1 943 1
127 0 5 647 1 974 1 920 1 758 1 556 1
128 0 5 648 1 642 1 991 1 798 1 1000 1
129 0 5 649 1 1018 1 870 1 617 1 556 1
130 0 5 650 1 997 1 612 1 903 1 847 1
131 0 5 651 1 932 1 802 1 988 1 691 1
132 0 5 652 1 530 1 633 1 986 1 819 1
133 0 5 653 1 839 1 582 1 907 1 1018 1
134 0 5 654 1 612 1 1020 1 567 1 535 1
135 0 5 655 1 845 1 586 1 929 1 697 1
136 0 5 656 1 523 1 699 1 700 1 985 1
137 0 5 657 1 882 1 665 1 759 1 680 1
138 0 5 658 1 834 1 642 1 1000 1 601 1
139 0 5 659 1 725 1 962 1 1011 1 914 1
140 0 5 660 1 722 1 705 1 547 1 686 1
141 0 5 661 1 659 1 610 1 1011 1 725 1
142 0 5 662 1 801 1 926 1 832 1 989 1
143 0 5 663 1 682 1 960 1 976 1 529 1
144 0 5 664 1 958 1 787 1 946 1 737 1
145 0 5 665 1 779 1 657 1 882 1 680 1
146 0 5 666 1 942 1 763 1 692 1 1015 1
147 0 5 667 1 521 1 966 1 548 1 824 1
148 0 5 668 1 729 1 737 1 958 1 850 1
149 0 5 669 1 961 1 791 1 810 1 765 1
150 0 5 670 1 917 1 747 1 587 1 829 1
151 0 5 671 1 945 1 775 1 923 1 952 1
152 0 5 672 1 909 1 573 1 846 1 986 1
153 0 5 673 1 927 1 963 1 534 1 585 1
154 0 5 674 1 555 1 1001 1 908 1 594 1
155 0 5 675 1 889 1 844 1 775 1 773 1
156 0 5 676 1 736 1 1019 1 790 1 554 1
157 0 5 677 1 634 1 680 1 911 1 625 1
158 0 5 678 1 965 1 548 1 781 1 975 1
159 0 5 679 1 928 1 896 1 796 1 994 1
160 0 5 680 1 865 1 983 1 779 1 882 1
161 0 5 681 1 723 1 790 1 554 1 901 1
162 0 5 682 1 529 1 765 1 973 1 976 1
163 0 5 683 1 690 1 599 1 688 1 823 1
164 0 5 684 1 580 1 895 1 809 1 613 1
165 0 5 685 1 821 1 951 1 950 1 586 1
166 0 5 686 1 795 1 547 1 730 1 705 1
167 0 5 687 1 880 1 726 1 1003 1 740 1
168 0 5 688 1 754 1 792 1 565 1 590 1
169 0 5 689 1 1007 1 716 1 817 1 543 1
170 0 5 690 1 893 1 599 1 720 1 683 1
171 0 5 691 1 967 1 603 1 932 1 651 1
172 0 5 692 1 942 1 666 1 754 1 763 1
173 0 5 693 1 1014 1 640 1 892 1 694 1
174 0 5 694 1 738 1 616 1 716 1 531 1
175 0 5 695 1 545 1 731 1 543 1 538 1
176 0 5 696 1 831 1 678 1 609 1 521 1
177 0 5 697 1 550 1 701 1 679 1 655 1
178 0 5 698 1 618 1 740 1 594 1 762 1
179 0 5 699 1 793 1 526 1 727 1 523 1
180 0 5 700 1 818 1 656 1 858 1 1006 1
181 0 5 701 1 624 1 928 1 679 1 994 1
182 0 5 702 1 641 1 589 1 576 1 571 1
183 0 5 703 1 635 1 971 1 987 1 549 1
184 0 5 704 1 565 1 535 1 887 1 665 1
185 0 5 705 1 742 1 660 1 686 1 999 1
186 0 5 706 1 988 1 813 1 857 1 992 1
187 0 5 707 1 778 1 858 1 985 1 636 1
188 0 5 708 1 939 1 843 1 541 1 913 1
189 0 5 709 1 980 1 759 1 882 1 823 1
190 0 5 710 1 525 1 968 1 807 1 738 1
191 0 5 711 1 786 1 919 1 831 1 936 1
192 0 5 712 1 863 1 685 1 756 1 785 1
193 0 5 713 1 611 1 802 1 721 1 523 1
194 0 5 714 1 891 1 805 1 769 1 581 1
195 0 5 715 1 904 1 604 1 623 1 872 1
196 0 5 716 1 538 1 525 1 817 1 807 1
197 0 5 717 1 569 1 592 1 570 1 982 1
198 0 5 718 1 735 1 862 1 922 1 599 1
199 0 5 719 1 902 1 614 1 915 1 1010 1
200 0 5 720 1 893 1 703 1 635 1 599 1
201 0 5 721 1 813 1 818 1 611 1 660 1
202 0 5 722 1 721 1 611 1 818 1 660 1
203 0 5 723 1 901 1 790 1 681 1 554 1
204 0 5 724 1 630 1 764 1 994 1 662 1
205 0 5 725 1 914 1 733 1 553 1 1011 1
206 0 5 726 1 1003 1 621 1 827 1 851 1
207 0 5 727 1 526 1 874 1 998 1 793 1
208 0 5 728 1 941 1 907 1 995 1 1016 1
209 0 5 729 1 602 1 626 1 668 1 1008 1
210 0 5 730 1 897 1 686 1 532 1 795 1
211 0 5 731 1 695 1 538 1 545 1 995 1
212 0 5 732 1 996 1 767 1 924 1 900 1
213 0 5 733 1 539 1 761 1 773 1 949 1
214 0 5 734 1 869 1 540 1 1006 1 536 1
215 0 5 735 1 791 1 981 1 922 1 599 1
216 0 5 736 1 554 1 681 1 790 1 723 1
217 0 5 737 1 668 1 958 1 664 1 672 1
218 0 5 738 1 716 1 807 1 710 1 817 1
219 0 5 739 1 541 1 632 1 913 1 939 1
220 0 5 740 1 629 1 620 1 880 1 618 1
221 0 5 741 1 593 1 949 1 1012 1 751 1
222 0 5 742 1 903 1 650 1 612 1 997 1
223 0 5 743 1 969 1 604 1 637 1 904 1
224 0 5 744 1 543 1 986 1 545 1 1008 1
225 0 5 745 1 936 1 833 1 544 1 919 1
226 0 5 746 1 970 1 798 1 904 1 714 1
227 0 5 747 1 753 1 878 1 959 1 990 1
228 0 5 748 1 920 1 582 1 647 1 839 1
229 0 5 749 1 587 1 768 1 794 1 804 1
230 0 5 750 1 787 1 664 1 958 1 668 1
231 0 5 751 1 824 1 733 1 524 1 867 1
232 0 5 752 1 521 1 864 1 980 1 667 1
233 0 5 753 1 878 1 747 1 799 1 990 1
234 0 5 754 1 792 1 688 1 997 1 565 1
235 0 5 755 1 581 1 714 1 798 1 891 1
236 0 5 756 1 863 1 960 1 607 1 975 1
237 0 5 757 1 826 1 596 1 617 1 969 1
238 0 5 758 1 647 1 900 1 849 1 575 1
239 0 5 759 1 983 1 709 1 882 1 865 1
240 0 5 760 1 909 1 737 1 627 1 672 1
241 0 5 761 1 902 1 773 1 719 1 809 1
242 0 5 762 1 698 1 830 1 618 1 991 1
243 0 5 763 1 1015 1 681 1 942 1 947 1
244 0 5 764 1 724 1 853 1 662 1 994 1
245 0 5 765 1 810 1 976 1 682 1 529 1
246 0 5 766 1 876 1 535 1 841 1 549 1
247 0 5 767 1 900 1 809 1 924 1 849 1
248 0 5 768 1 568 1 797 1 794 1 898 1
249 0 5 769 1 623 1 891 1 714 1 743 1
250 0 5 770 1 838 1 636 1 707 1 982 1
251 0 5 771 1 613 1 979 1 585 1 575 1
252 0 5 772 1 800 1 619 1 825 1 925 1
253 0 5 773 1 889 1 902 1 761 1 775 1
254 0 5 774 1 881 1 766 1 549 1 535 1
255 0 5 775 1 884 1 741 1 799 1 889 1
256 0 5 776 1 791 1 823 1 966 1 752 1
257 0 5 777 1 852 1 528 1 999 1 956 1
258 0 5 778 1 985 1 835 1 838 1 770 1
259 0 5 779 1 657 1 882 1 865 1 665 1
260 0 5 780 1 805 1 984 1 891 1 743 1
261 0 5 781 1 756 1 577 1 682 1 678 1
262 0 5 782 1 762 1 528 1 806 1 1006 1
263 0 5 783 1 631 1 887 1 789 1 847 1
264 0 5 784 1 726 1 782 1 806 1 868 1
265 0 5 785 1 712 1 931 1 685 1 821 1
266 0 5 786 1 978 1 583 1 725 1 947 1
267 0 5 787 1 946 1 664 1 837 1 652 1
268 0 5 788 1 711 1 859 1 877 1 831 1
269 0 5 789 1 783 1 631 1 887 1 634 1
270 0 5 790 1 885 1 901 1 1019 1 980 1
271 0 5 791 1 776 1 669 1 606 1 823 1
272 0 5 792 1 885 1 754 1 688 1 1019 1
273 0 5 793 1 727 1 699 1 998 1 526 1
274 0 5 794 1 820 1 898 1 768 1 749 1
275 0 5 795 1 730 1 742 1 686 1 903 1
276 0 5 796 1 832 1 562 1 662 1 916 1
277 0 5 797 1 663 1 568 1 960 1 607 1
278 0 5 798 1 648 1 743 1 601 1 574 1
279 0 5 799 1 934 1 753 1 990 1 884 1
280 0 5 800 1 979 1 925 1 819 1 915 1
281 0 5 801 1 853 1 989 1 662 1 638 1
282 0 5 802 1 713 1 988 1 858 1 985 1
283 0 5 803 1 687 1 880 1 868 1 806 1
284 0 5 804 1 587 1 1012 1 593 1 749 1
285 0 5 805 1 601 1 714 1 755 1 891 1
286 0 5 806 1 528 1 784 1 740 1 803 1
287 0 5 807 1 710 1 738 1 525 1 968 1
288 0 5 808 1 795 1 742 1 903 1 730 1
289 0 5 809 1 552 1 849 1 580 1 767 1
290 0 5 810 1 765 1 752 1 973 1 976 1
291 0 5 811 1 954 1 955 1 886 1 604 1
292 0 5 812 1 557 1 1003 1 957 1 827 1
293 0 5 813 1 532 1 651 1 802 1 988 1
294 0 5 814 1 522 1 643 1 536 1 1006 1
295 0 5 815 1 872 1 637 1 623 1 894 1
296 0 5 816 1 906 1 964 1 551 1 630 1
297 0 5 817 1 807 1 525 1 533 1 710 1
298 0 5 818 1 713 1 611 1 722 1 536 1
299 0 5 819 1 825 1 915 1 979 1 619 1
300 0 5 820 1 898 1 794 1 940 1 607 1
301 0 5 821 1 749 1 794 1 587 1 548 1
302 0 5 822 1 598 1 787 1 558 1 1017 1
303 0 5 823 1 776 1 885 1 791 1 864 1
304 0 5 824 1 521 1 667 1 966 1 548 1
305 0 5 825 1 619 1 819 1 772 1 986 1
306 0 5 826 1 622 1 815 1 984 1 617 1
307 0 5 827 1 621 1 851 1 868 1 1003 1
308 0 5 828 1 608 1 633 1 579 1 558 1
309 0 5 829 1 878 1 670 1 587 1 747 1
310 0 5 830 1 762 1 1005 1 1006 1 698 1
311 0 5 831 1 524 1 824 1 667 1 548 1
312 0 5 832 1 662 1 796 1 916 1 926 1
313 0 5 833 1 544 1 745 1 949 1 978 1
314 0 5 834 1 601 1 658 1 642 1 1000 1
315 0 5 835 1 836 1 569 1 681 1 736 1
316 0 5 836 1 592 1 569 1 978 1 564 1
317 0 5 837 1 652 1 573 1 608 1 986 1
318 0 5 838 1 770 1 982 1 636 1 707 1
319 0 5 839 1 556 1 647 1 561 1 920 1
320 0 5 840 1 572 1 1009 1 675 1 733 1
321 0 5 841 1 921 1 549 1 1020 1 567 1
322 0 5 842 1 577 1 781 1 943 1 678 1
323 0 5 843 1 708 1 939 1 557 1 541 1
324 0 5 844 1 732 1 924 1 996 1 719 1
325 0 5 845 1 655 1 929 1 630 1 910 1
326 0 5 846 1 890 1 968 1 986 1 883 1
327 0 5 847 1 887 1 612 1 997 1 650 1
328 0 5 848 1 586 1 951 1 910 1 845 1
329 0 5 849 1 575 1 1004 1 641 1 571 1
330 0 5 850 1 1008 1 744 1 979 1 585 1
331 0 5 851 1 868 1 621 1 827 1 812 1
332 0 5 852 1 777 1 528 1 956 1 999 1
333 0 5 853 1 801 1 724 1 764 1 926 1
334 0 5 854 1 814 1 818 1 643 1 722 1
335 0 5 855 1 594 1 1001 1 674 1 698 1
336 0 5 856 1 948 1 1010 1 923 1 915 1
337 0 5 857 1 992 1 706 1 588 1 871 1
338 0 5 858 1 830 1 802 1 700 1 932 1
339 0 5 859 1 711 1 786 1 919 1 936 1
340 0 5 860 1 584 1 995 1 578 1 963 1
341 0 5 861 1 606 1 791 1 625 1 615 1
342 0 5 862 1 718 1 981 1 599 1 861 1
343 0 5 863 1 685 1 756 1 961 1 797 1
344 0 5 864 1 521 1 966 1 752 1 980 1
345 0 5 865 1 680 1 779 1 983 1 882 1
346 0 5 866 1 1013 1 899 1 578 1 963 1
347 0 5 867 1 949 1 751 1 564 1 978 1
348 0 5 868 1 803 1 827 1 851 1 687 1
349 0 5 869 1 991 1 734 1 540 1 944 1
350 0 5 870 1 617 1 596 1 649 1 653 1
351 0 5 871 1 857 1 681 1 588 1 992 1
352 0 5 872 1 559 1 637 1 815 1 955 1
353 0 5 873 1 671 1 945 1 952 1 884 1
354 0 5 874 1 605 1 540 1 998 1 727 1
355 0 5 875 1 877 1 831 1 524 1 788 1
356 0 5 876 1 535 1 567 1 841 1 704 1
357 0 5 877 1 840 1 572 1 930 1 524 1
358 0 5 878 1 829 1 747 1 753 1 775 1
359 0 5 879 1 956 1 999 1 897 1 852 1
360 0 5 880 1 726 1 687 1 1003 1 740 1
361 0 5 881 1 766 1 841 1 549 1 635 1
362 0 5 882 1 759 1 779 1 983 1 709 1
363 0 5 883 1 825 1 968 1 619 1 890 1
364 0 5 884 1 775 1 799 1 741 1 804 1
365 0 5 885 1 823 1 709 1 1019 1 790 1
366 0 5 886 1 702 1 954 1 641 1 571 1
367 0 5 887 1 631 1 847 1 783 1 612 1
368 0 5 888 1 870 1 649 1 617 1 596 1
369 0 5 889 1 773 1 775 1 902 1 884 1
370 0 5 890 1 986 1 883 1 968 1 652 1
371 0 5 891 1 769 1 623 1 714 1 755 1
372 0 5 892 1 1007 1 1014 1 694 1 533 1
373 0 5 893 1 590 1 720 1 688 1 690 1
374 0 5 894 1 872 1 714 1 826 1 769 1
375 0 5 895 1 684 1 849 1 900 1 580 1
376 0 5 896 1 639 1 916 1 926 1 796 1
377 0 5 897 1 730 1 532 1 999 1 721 1
378 0 5 898 1 607 1 940 1 820 1 794 1
379 0 5 899 1 866 1 578 1 963 1 673 1
380 0 5 900 1 758 1 895 1 647 1 849 1
381 0 5 901 1 544 1 709 1 980 1 554 1
382 0 5 902 1 719 1 773 1 761 1 799 1
383 0 5 903 1 650 1 742 1 612 1 705 1
384 0 5 904 1 570 1 604 1 970 1 912 1
385 0 5 905 1 720 1 599 1 893 1 690 1
386 0 5 906 1 845 1 964 1 926 1 990 1
387 0 5 907 1 728 1 995 1 1018 1 941 1
388 0 5 908 1 574 1 555 1 636 1 546 1
389 0 5 909 1 672 1 846 1 573 1 968 1
390 0 5 910 1 848 1 951 1 845 1 630 1
391 0 5 911 1 937 1 987 1 634 1 720 1
392 0 5 912 1 970 1 574 1 746 1 755 1
393 0 5 913 1 739 1 541 1 557 1 957 1
394 0 5 914 1 962 1 725 1 1011 1 553 1
395 0 5 915 1 977 1 1010 1 614 1 856 1
396 0 5 916 1 796 1 832 1 639 1 896 1
397 0 5 917 1 929 1 670 1 655 1 747 1
398 0 5 918 1 560 1 579 1 530 1 948 1
399 0 5 919 1 936 1 659 1 661 1 745 1
400 0 5 920 1 582 1 839 1 748 1 647 1
401 0 5 921 1 704 1 535 1 549 1 567 1
402 0 5 922 1 669 1 735 1 961 1 791 1
403 0 5 923 1 566 1 884 1 775 1 934 1
404 0 5 924 1 761 1 767 1 900 1 733 1
405 0 5 925 1 552 1 979 1 800 1 915 1
406 0 5 926 1 994 1 724 1 662 1 832 1
407 0 5 927 1 626 1 585 1 673 1 974 1
408 0 5 928 1 701 1 764 1 994 1 926 1
409 0 5 929 1 917 1 845 1 655 1 670 1
410 0 5 930 1 931 1 829 1 821 1 524 1
411 0 5 931 1 644 1 829 1 670 1 917 1
412 0 5 932 1 651 1 967 1 691 1 802 1
413 0 5 933 1 793 1 998 1 727 1 610 1
414 0 5 934 1 990 1 566 1 923 1 799 1
415 0 5 935 1 1021 1 576 1 895 1 953 1
416 0 5 936 1 745 1 544 1 919 1 833 1
417 0 5 937 1 789 1 634 1 911 1 677 1
418 0 5 938 1 814 1 1006 1 782 1 869 1
419 0 5 939 1 913 1 739 1 541 1 632 1
420 0 5 940 1 898 1 821 1 548 1 607 1
421 0 5 941 1 972 1 728 1 616 1 640 1
422 0 5 942 1 763 1 1015 1 666 1 676 1
423 0 5 943 1 842 1 781 1 577 1 961 1
424 0 5 944 1 605 1 540 1 798 1 869 1
425 0 5 945 1 741 1 593 1 671 1 873 1
426 0 5 946 1 627 1 760 1 602 1 573 1
427 0 5 947 1 583 1 745 1 919 1 962 1
428 0 5 948 1 923 1 856 1 934 1 560 1
429 0 5 949 1 524 1 824 1 751 1 741 1
430 0 5 950 1 697 1 951 1 655 1 586 1
431 0 5 951 1 768 1 910 1 749 1 848 1
432 0 5 952 1 873 1 945 1 671 1 902 1
433 0 5 953 1 570 1 1021 1 576 1 717 1
434 0 5 954 1 955 1 886 1 597 1 811 1
435 0 5 955 1 757 1 604 1 559 1 899 1
436 0 5 956 1 852 1 897 1 777 1 999 1
437 0 5 957 1 812 1 557 1 1003 1 913 1
438 0 5 958 1 664 1 668 1 737 1 729 1
439 0 5 959 1 600 1 1017 1 799 1 753 1
440 0 5 960 1 973 1 663 1 607 1 797 1
441 0 5 961 1 976 1 669 1 756 1 791 1
442 0 5 962 1 1011 1 914 1 583 1 947 1
443 0 5 963 1 578 1 538 1 534 1 860 1
444 0 5 964 1 816 1 906 1 551 1 630 1
445 0 5 965 1 975 1 940 1 678 1 548 1
446 0 5 966 1 521 1 864 1 752 1 980 1
447 0 5 967 1 806 1 1005 1 532 1 938 1
448 0 5 968 1 883 1 710 1 817 1 525 1
449 0 5 969 1 637 1 743 1 604 1 815 1
450 0 5 970 1 746 1 912 1 904 1 574 1
451 0 5 971 1 615 1 634 1 861 1 911 1
452 0 5 972 1 640 1 941 1 1016 1 728 1
453 0 5 973 1 529 1 810 1 765 1 960 1
454 0 5 974 1 585 1 673 1 927 1 1004 1
455 0 5 975 1 756 1 940 1 965 1 930 1
456 0 5 976 1 765 1 973 1 529 1 810 1
457 0 5 977 1 614 1 1010 1 952 1 873 1
458 0 5 978 1 833 1 583 1 733 1 725 1
459 0 5 979 1 800 1 925 1 819 1 619 1
460 0 5 980 1 864 1 521 1 752 1 709 1
461 0 5 981 1 971 1 615 1 861 1 625 1
462 0 5 982 1 838 1 770 1 570 1 526 1
463 0 5 983 1 599 1 776 1 823 1 905 1
464 0 5 984 1 780 1 622 1 826 1 623 1
465 0 5 985 1 835 1 778 1 523 1 802 1
466 0 5 986 1 825 1 573 1 619 1 819 1
467 0 5 987 1 911 1 937 1 971 1 634 1
468 0 5 988 1 705 1 813 1 742 1 706 1
469 0 5 989 1 638 1 801 1 853 1 662 1
470 0 5 990 1 964 1 816 1 934 1 638 1
471 0 5 991 1 648 1 1000 1 674 1 1001 1
472 0 5 992 1 706 1 857 1 523 1 871 1
473 0 5 993 1 553 1 539 1 867 1 583 1
474 0 5 994 1 926 1 764 1 724 1 662 1
475 0 5 995 1 1018 1 616 1 538 1 716 1
476 0 5 996 1 767 1 732 1 924 1 900 1
477 0 5 997 1 754 1 1019 1 565 1 704 1
478 0 5 998 1 1002 1 727 1 874 1 526 1
479 0 5 999 1 777 1 879 1 722 1 852 1
480 0 5 1000 1 1001 1 855 1 642 1 594 1
481 0 5 1001 1 855 1 1000 1 674 1 594 1
482 0 5 1002 1 874 1 605 1 944 1 540 1
483 0 5 1003 1 957 1 812 1 594 1 726 1
484 0 5 1004 1 589 1 575 1 886 1 849 1
485 0 5 1005 1 858 1 620 1 830 1 721 1
486 0 5 1006 1 734 1 991 1 869 1 546 1
487 0 5 1007 1 533 1 716 1 689 1 543 1
488 0 5 1008 1 744 1 850 1 729 1 668 1
489 0 5 1009 1 675 1 829 1 878 1 889 1
490 0 5 1010 1 856 1 923 1 915 1 952 1
491 0 5 1011 1 610 1 727 1 962 1 933 1
492 0 5 1012 1 794 1 593 1 804 1 820 1
493 0 5 1013 1 584 1 866 1 578 1 860 1
494 0 5 1014 1 892 1 693 1 694 1 640 1
495 0 5 1015 1 643 1 699 1 523 1 947 1
496 0 5 1016 1 728 1 941 1 907 1 653 1
497 0 5 1017 1 527 1 560 1 598 1 558 1
498 0 5 1018 1 907 1 860 1 728 1 995 1
499 0 5 1019 1 676 1 736 1 790 1 554 1
500 0 5 1020 1 654 1 567 1 612 1 549 1
501 0 5 1021 1 576 1 580 1 953 1 895 1
502 0 5 1022 0 521 1 1022 1 1023 1 1024 1
503 0 5 1023 0 521 1 1022 1 1023 1 1024 1
504 0 5 1024 0 521 1 1022 1 1023 1 1024 1
505 0 5 1025 0 521 1 1022 1 1023 1 1024 1
506 0 5 1026 0 521 1 1022 1 1023 1 1024 1
507 0 5 1027 0 521 1 1022 1 1023 1 1024 1
508 0 5 1028 0 521 1 1022 1 1023 1 1024 1
509 0 5 1029 0 521 1 1022 1 1023 1 1024 1
510 0 5 1030 0 521 1 1022 1 1023 1 1024 1
511 0 5 1031 0 521 1 1022 1 1023 1 1024 1
512 0 5 1032 0 521 1 1022 1 1023 1 1024 1
513 0 5 1033 0 521 1 1022 1 1023 1 1024 1
514 0 5 1034 0 521 1 1022 1 1023 1 1024 1
515 0 5 1035 0 521 1 1022 1 1023 1 1024 1
516 0 5 1036 0 521 1 1022 1 1023 1 1024 1
517 0 5 1037 0 521 1 1022 1 1023 1 1024 1
518 0 5 1038 0 521 1 1022 1 1023 1 1024 1
519 0 5 1039 0 521 1 1022 1 1023 1 1024 1
520 0 5 1040 0 521 1 1022 1 1023 1 1024 1
521 0 5 1 0 520 1 519 1 518 1 517 1
522 0 5 2 1 294 1 123 1 214 1 20 1
523 0 5 3 1 136 1 91 1 465 1 179 1
524 0 5 4 1 311 1 429 1 357 1 73 1
525 0 5 5 1 190 1 297 1 196 1 287 1
526 0 5 6 1 207 1 179 1 273 1 50 1
527 0 5 7 1 497 1 40 1 10 1 308 1
528 0 5 8 1 286 1 262 1 257 1 332 1
529 0 5 9 1 453 1 456 1 290 1 440 1
530 0 5 10 1 7 1 132 1 398 1 299 1
531 0 5 11 1 96 1 120 1 174 1 340 1
532 0 5 12 1 293 1 377 1 210 1 468 1
533 0 5 13 1 487 1 297 1 372 1 169 1
534 0 5 14 1 65 1 443 1 153 1 93 1
535 0 5 15 1 356 1 401 1 184 1 246 1
536 0 5 16 1 2 1 486 1 298 1 294 1
537 0 5 17 1 12 1 288 1 468 1 210 1
538 0 5 18 1 196 1 443 1 475 1 340 1
539 0 5 19 1 213 1 473 1 241 1 289 1
540 0 5 20 1 214 1 354 1 424 1 349 1
541 0 5 21 1 219 1 393 1 419 1 112 1
542 0 5 22 1 59 1 398 1 113 1 40 1
543 0 5 23 1 224 1 25 1 169 1 487 1
544 0 5 24 1 313 1 416 1 225 1 399 1
545 0 5 25 1 175 1 211 1 224 1 18 1
546 0 5 26 1 116 1 486 1 35 1 187 1
547 0 5 27 1 166 1 140 1 185 1 479 1
548 0 5 28 1 158 1 420 1 4 1 311 1
549 0 5 29 1 321 1 401 1 183 1 500 1
550 0 5 30 1 177 1 104 1 181 1 430 1
551 0 5 31 1 110 1 444 1 296 1 118 1
552 0 5 32 1 405 1 289 1 280 1 93 1
553 0 5 33 1 473 1 60 1 394 1 19 1
554 0 5 34 1 216 1 161 1 315 1 203 1
555 0 5 35 1 154 1 26 1 388 1 471 1
556 0 5 36 1 319 1 129 1 41 1 133 1
557 0 5 37 1 292 1 437 1 314 1 323 1
558 0 5 38 1 78 1 308 1 7 1 497 1
559 0 5 39 1 352 1 435 1 182 1 84 1
560 0 5 40 1 398 1 22 1 497 1 428 1
561 0 5 41 1 36 1 77 1 319 1 434 1
562 0 5 42 1 276 1 396 1 312 1 474 1
563 0 5 43 1 71 1 21 1 314 1 219 1
564 0 5 44 1 33 1 60 1 347 1 473 1
565 0 5 45 1 184 1 168 1 70 1 234 1
566 0 5 46 1 403 1 470 1 414 1 296 1
567 0 5 47 1 356 1 15 1 401 1 134 1
568 0 5 48 1 248 1 277 1 300 1 274 1
569 0 5 49 1 197 1 315 1 316 1 258 1
570 0 5 50 1 384 1 6 1 433 1 462 1
571 0 5 51 1 69 1 121 1 329 1 182 1
572 0 5 52 1 320 1 357 1 355 1 191 1
573 0 5 53 1 152 1 466 1 317 1 107 1
574 0 5 54 1 388 1 392 1 278 1 450 1
575 0 5 55 1 329 1 484 1 65 1 454 1
576 0 5 56 1 501 1 415 1 433 1 182 1
577 0 5 57 1 322 1 89 1 261 1 423 1
578 0 5 58 1 443 1 64 1 340 1 493 1
579 0 5 59 1 113 1 398 1 88 1 308 1
580 0 5 60 1 164 1 19 1 289 1 501 1
581 0 5 61 1 235 1 194 1 285 1 278 1
582 0 5 62 1 400 1 133 1 228 1 319 1
583 0 5 63 1 427 1 266 1 442 1 458 1
584 0 5 64 1 493 1 340 1 102 1 498 1
585 0 5 65 1 454 1 407 1 18 1 106 1
586 0 5 66 1 328 1 135 1 30 1 430 1
587 0 5 67 1 229 1 309 1 284 1 124 1
588 0 5 68 1 3 1 351 1 337 1 465 1
589 0 5 69 1 484 1 121 1 51 1 182 1
590 0 5 70 1 373 1 45 1 168 1 170 1
591 0 5 71 1 112 1 21 1 314 1 219 1
592 0 5 72 1 316 1 33 1 44 1 49 1
593 0 5 73 1 221 1 284 1 425 1 492 1
594 0 5 74 1 335 1 98 1 480 1 154 1
595 0 5 75 1 265 1 124 1 150 1 325 1
596 0 5 76 1 97 1 350 1 237 1 129 1
597 0 5 77 1 41 1 36 1 434 1 407 1
598 0 5 78 1 302 1 38 1 497 1 7 1
599 0 5 79 1 170 1 342 1 461 1 385 1
600 0 5 80 1 396 1 119 1 376 1 312 1
601 0 5 81 1 314 1 285 1 278 1 122 1
602 0 5 82 1 209 1 148 1 240 1 217 1
603 0 5 83 1 109 1 171 1 100 1 485 1
604 0 5 84 1 435 1 195 1 384 1 39 1
605 0 5 85 1 424 1 354 1 482 1 20 1
606 0 5 86 1 341 1 271 1 215 1 256 1
607 0 5 87 1 378 1 440 1 420 1 277 1
608 0 5 88 1 308 1 113 1 132 1 317 1
609 0 5 89 1 1 1 176 1 126 1 57 1
610 0 5 90 1 491 1 141 1 413 1 139 1
611 0 5 91 1 193 1 201 1 202 1 298 1
612 0 5 92 1 134 1 327 1 500 1 222 1
613 0 5 93 1 251 1 14 1 32 1 69 1
614 0 5 94 1 457 1 199 1 382 1 241 1
615 0 5 95 1 451 1 461 1 215 1 341 1
616 0 5 96 1 174 1 475 1 340 1 11 1
617 0 5 97 1 350 1 129 1 41 1 76 1
618 0 5 98 1 178 1 74 1 242 1 220 1
619 0 5 99 1 305 1 252 1 466 1 299 1
620 0 5 100 1 109 1 485 1 220 1 83 1
621 0 5 101 1 307 1 331 1 206 1 348 1
622 0 5 102 1 306 1 76 1 464 1 64 1
623 0 5 103 1 249 1 371 1 295 1 102 1
624 0 5 104 1 181 1 30 1 177 1 408 1
625 0 5 105 1 86 1 461 1 157 1 341 1
626 0 5 106 1 407 1 209 1 454 1 62 1
627 0 5 107 1 426 1 240 1 82 1 144 1
628 0 5 108 1 172 1 79 1 163 1 256 1
629 0 5 109 1 220 1 100 1 83 1 485 1
630 0 5 110 1 204 1 31 1 325 1 444 1
631 0 5 111 1 263 1 367 1 115 1 183 1
632 0 5 112 1 21 1 219 1 419 1 71 1
633 0 5 113 1 88 1 308 1 132 1 10 1
634 0 5 114 1 157 1 391 1 451 1 417 1
635 0 5 115 1 183 1 385 1 391 1 200 1
636 0 5 116 1 250 1 26 1 35 1 318 1
637 0 5 117 1 449 1 295 1 352 1 223 1
638 0 5 118 1 469 1 470 1 142 1 281 1
639 0 5 119 1 80 1 376 1 396 1 312 1
640 0 5 120 1 452 1 173 1 421 1 494 1
641 0 5 121 1 182 1 366 1 329 1 51 1
642 0 5 122 1 128 1 138 1 480 1 314 1
643 0 5 123 1 2 1 294 1 273 1 298 1
644 0 5 124 1 411 1 66 1 309 1 150 1
645 0 5 125 1 237 1 291 1 449 1 434 1
646 0 5 126 1 1 1 176 1 256 1 446 1
647 0 5 127 1 238 1 319 1 400 1 228 1
648 0 5 128 1 471 1 278 1 122 1 480 1
649 0 5 129 1 97 1 368 1 350 1 133 1
650 0 5 130 1 383 1 222 1 92 1 288 1
651 0 5 131 1 412 1 293 1 171 1 17 1
652 0 5 132 1 317 1 299 1 466 1 10 1
653 0 5 133 1 62 1 129 1 400 1 36 1
654 0 5 134 1 500 1 47 1 321 1 15 1
655 0 5 135 1 325 1 409 1 177 1 397 1
656 0 5 136 1 123 1 180 1 179 1 16 1
657 0 5 137 1 259 1 145 1 345 1 160 1
658 0 5 138 1 122 1 314 1 480 1 128 1
659 0 5 139 1 141 1 491 1 442 1 63 1
660 0 5 140 1 27 1 185 1 166 1 202 1
661 0 5 141 1 399 1 72 1 316 1 266 1
662 0 5 142 1 312 1 406 1 281 1 244 1
663 0 5 143 1 277 1 440 1 48 1 87 1
664 0 5 144 1 267 1 438 1 230 1 217 1
665 0 5 145 1 137 1 45 1 259 1 70 1
666 0 5 146 1 172 1 399 1 422 1 460 1
667 0 5 147 1 28 1 304 1 311 1 4 1
668 0 5 148 1 217 1 438 1 209 1 82 1
669 0 5 149 1 271 1 402 1 441 1 256 1
670 0 5 150 1 124 1 397 1 309 1 411 1
671 0 5 151 1 353 1 490 1 432 1 425 1
672 0 5 152 1 389 1 53 1 240 1 217 1
673 0 5 153 1 77 1 454 1 407 1 41 1
674 0 5 154 1 98 1 481 1 35 1 471 1
675 0 5 155 1 489 1 52 1 320 1 255 1
676 0 5 156 1 499 1 472 1 351 1 216 1
677 0 5 157 1 105 1 114 1 86 1 391 1
678 0 5 158 1 89 1 176 1 57 1 1 1
679 0 5 159 1 42 1 181 1 177 1 30 1
680 0 5 160 1 345 1 157 1 259 1 86 1
681 0 5 161 1 351 1 216 1 315 1 203 1
682 0 5 162 1 9 1 440 1 261 1 245 1
683 0 5 163 1 108 1 170 1 79 1 385 1
684 0 5 164 1 375 1 93 1 289 1 51 1
685 0 5 165 1 343 1 430 1 236 1 192 1
686 0 5 166 1 27 1 210 1 275 1 246 1
687 0 5 167 1 283 1 360 1 348 1 220 1
688 0 5 168 1 70 1 45 1 234 1 373 1
689 0 5 169 1 23 1 487 1 13 1 297 1
690 0 5 170 1 163 1 79 1 373 1 385 1
691 0 5 171 1 100 1 83 1 412 1 131 1
692 0 5 172 1 146 1 108 1 234 1 422 1
693 0 5 173 1 120 1 494 1 372 1 421 1
694 0 5 174 1 11 1 372 1 96 1 494 1
695 0 5 175 1 211 1 106 1 475 1 209 1
696 0 5 176 1 1 1 158 1 311 1 126 1
697 0 5 177 1 430 1 135 1 159 1 75 1
698 0 5 178 1 242 1 74 1 310 1 109 1
699 0 5 179 1 136 1 273 1 6 1 491 1
700 0 5 180 1 16 1 136 1 338 1 193 1
701 0 5 181 1 408 1 104 1 177 1 30 1
702 0 5 182 1 366 1 121 1 433 1 69 1
703 0 5 183 1 115 1 200 1 29 1 373 1
704 0 5 184 1 15 1 401 1 45 1 477 1
705 0 5 185 1 468 1 140 1 166 1 27 1
706 0 5 186 1 472 1 337 1 91 1 468 1
707 0 5 187 1 26 1 250 1 116 1 318 1
708 0 5 188 1 323 1 37 1 419 1 393 1
709 0 5 189 1 365 1 239 1 270 1 381 1
710 0 5 190 1 5 1 287 1 297 1 196 1
711 0 5 191 1 339 1 1 1 268 1 126 1
712 0 5 192 1 265 1 165 1 236 1 441 1
713 0 5 193 1 298 1 282 1 91 1 465 1
714 0 5 194 1 61 1 235 1 285 1 249 1
715 0 5 195 1 84 1 433 1 435 1 449 1
716 0 5 196 1 169 1 475 1 487 1 18 1
717 0 5 197 1 50 1 433 1 501 1 56 1
718 0 5 198 1 342 1 215 1 271 1 341 1
719 0 5 199 1 382 1 241 1 94 1 253 1
720 0 5 200 1 79 1 115 1 385 1 170 1
721 0 5 201 1 202 1 193 1 377 1 298 1
722 0 5 202 1 140 1 479 1 27 1 298 1
723 0 5 203 1 161 1 34 1 216 1 270 1
724 0 5 204 1 244 1 406 1 474 1 110 1
725 0 5 205 1 139 1 394 1 266 1 458 1
726 0 5 206 1 264 1 360 1 167 1 483 1
727 0 5 207 1 273 1 179 1 491 1 478 1
728 0 5 208 1 387 1 496 1 133 1 498 1
729 0 5 209 1 148 1 488 1 82 1 438 1
730 0 5 210 1 377 1 275 1 166 1 288 1
731 0 5 211 1 106 1 175 1 475 1 209 1
732 0 5 212 1 324 1 476 1 247 1 404 1
733 0 5 213 1 205 1 458 1 404 1 33 1
734 0 5 214 1 486 1 20 1 349 1 2 1
735 0 5 215 1 198 1 402 1 342 1 461 1
736 0 5 216 1 156 1 499 1 315 1 161 1
737 0 5 217 1 148 1 240 1 438 1 107 1
738 0 5 218 1 174 1 287 1 11 1 96 1
739 0 5 219 1 393 1 21 1 419 1 74 1
740 0 5 220 1 178 1 98 1 286 1 360 1
741 0 5 221 1 255 1 364 1 73 1 429 1
742 0 5 222 1 185 1 383 1 288 1 275 1
743 0 5 223 1 278 1 449 1 85 1 61 1
744 0 5 224 1 488 1 25 1 330 1 152 1
745 0 5 225 1 427 1 416 1 313 1 399 1
746 0 5 226 1 450 1 384 1 392 1 54 1
747 0 5 227 1 233 1 358 1 150 1 309 1
748 0 5 228 1 400 1 319 1 62 1 238 1
749 0 5 229 1 301 1 67 1 284 1 431 1
750 0 5 230 1 267 1 144 1 10 1 53 1
751 0 5 231 1 347 1 429 1 221 1 73 1
752 0 5 232 1 162 1 256 1 344 1 261 1
753 0 5 233 1 227 1 358 1 279 1 150 1
754 0 5 234 1 168 1 272 1 184 1 45 1
755 0 5 235 1 81 1 61 1 285 1 194 1
756 0 5 236 1 261 1 455 1 57 1 441 1
757 0 5 237 1 435 1 76 1 125 1 97 1
758 0 5 238 1 380 1 127 1 375 1 247 1
759 0 5 239 1 362 1 137 1 160 1 345 1
760 0 5 240 1 107 1 82 1 426 1 217 1
761 0 5 241 1 404 1 213 1 253 1 382 1
762 0 5 242 1 310 1 262 1 98 1 178 1
763 0 5 243 1 422 1 146 1 399 1 172 1
764 0 5 244 1 204 1 408 1 474 1 406 1
765 0 5 245 1 456 1 290 1 453 1 441 1
766 0 5 246 1 361 1 321 1 29 1 254 1
767 0 5 247 1 476 1 404 1 289 1 241 1
768 0 5 248 1 431 1 229 1 300 1 274 1
769 0 5 249 1 371 1 194 1 235 1 61 1
770 0 5 250 1 318 1 462 1 258 1 6 1
771 0 5 251 1 14 1 65 1 93 1 454 1
772 0 5 252 1 99 1 305 1 459 1 299 1
773 0 5 253 1 369 1 241 1 382 1 213 1
774 0 5 254 1 361 1 246 1 356 1 15 1
775 0 5 255 1 364 1 369 1 253 1 279 1
776 0 5 256 1 271 1 303 1 126 1 86 1
777 0 5 257 1 332 1 479 1 436 1 359 1
778 0 5 258 1 187 1 465 1 250 1 318 1
779 0 5 259 1 145 1 345 1 362 1 70 1
780 0 5 260 1 464 1 285 1 306 1 102 1
781 0 5 261 1 322 1 57 1 158 1 423 1
782 0 5 262 1 264 1 8 1 286 1 418 1
783 0 5 263 1 269 1 367 1 111 1 417 1
784 0 5 264 1 286 1 8 1 206 1 481 1
785 0 5 265 1 192 1 143 1 236 1 165 1
786 0 5 266 1 191 1 339 1 268 1 399 1
787 0 5 267 1 230 1 144 1 426 1 88 1
788 0 5 268 1 1 1 126 1 355 1 416 1
789 0 5 269 1 417 1 263 1 367 1 111 1
790 0 5 270 1 161 1 203 1 216 1 365 1
791 0 5 271 1 215 1 256 1 149 1 303 1
792 0 5 272 1 234 1 168 1 477 1 45 1
793 0 5 273 1 179 1 413 1 207 1 136 1
794 0 5 274 1 300 1 229 1 301 1 492 1
795 0 5 275 1 166 1 288 1 210 1 17 1
796 0 5 276 1 42 1 312 1 396 1 159 1
797 0 5 277 1 48 1 248 1 440 1 87 1
798 0 5 278 1 85 1 424 1 128 1 61 1
799 0 5 279 1 233 1 364 1 255 1 414 1
800 0 5 280 1 459 1 252 1 299 1 405 1
801 0 5 281 1 469 1 142 1 118 1 396 1
802 0 5 282 1 338 1 131 1 412 1 293 1
803 0 5 283 1 348 1 286 1 262 1 360 1
804 0 5 284 1 67 1 46 1 229 1 492 1
805 0 5 285 1 260 1 81 1 194 1 61 1
806 0 5 286 1 8 1 262 1 100 1 264 1
807 0 5 287 1 297 1 190 1 5 1 13 1
808 0 5 288 1 17 1 275 1 166 1 12 1
809 0 5 289 1 32 1 93 1 247 1 241 1
810 0 5 290 1 245 1 453 1 149 1 456 1
811 0 5 291 1 125 1 434 1 435 1 77 1
812 0 5 292 1 437 1 483 1 101 1 331 1
813 0 5 293 1 201 1 468 1 186 1 91 1
814 0 5 294 1 334 1 418 1 486 1 2 1
815 0 5 295 1 117 1 306 1 449 1 103 1
816 0 5 296 1 444 1 470 1 31 1 325 1
817 0 5 297 1 13 1 196 1 169 1 5 1
818 0 5 298 1 180 1 201 1 202 1 334 1
819 0 5 299 1 305 1 280 1 132 1 466 1
820 0 5 300 1 274 1 28 1 378 1 420 1
821 0 5 301 1 67 1 420 1 124 1 455 1
822 0 5 302 1 267 1 497 1 308 1 38 1
823 0 5 303 1 365 1 256 1 108 1 259 1
824 0 5 304 1 311 1 147 1 28 1 4 1
825 0 5 305 1 466 1 299 1 363 1 99 1
826 0 5 306 1 237 1 76 1 102 1 464 1
827 0 5 307 1 101 1 206 1 331 1 348 1
828 0 5 308 1 7 1 10 1 38 1 113 1
829 0 5 309 1 358 1 489 1 411 1 410 1
830 0 5 310 1 338 1 242 1 485 1 262 1
831 0 5 311 1 4 1 176 1 429 1 1 1
832 0 5 312 1 276 1 396 1 142 1 406 1
833 0 5 313 1 458 1 225 1 44 1 416 1
834 0 5 314 1 138 1 81 1 122 1 480 1
835 0 5 315 1 465 1 258 1 351 1 68 1
836 0 5 316 1 315 1 44 1 33 1 427 1
837 0 5 317 1 88 1 113 1 10 1 144 1
838 0 5 318 1 250 1 462 1 258 1 6 1
839 0 5 319 1 36 1 400 1 133 1 62 1
840 0 5 320 1 357 1 52 1 191 1 489 1
841 0 5 321 1 47 1 29 1 356 1 15 1
842 0 5 322 1 423 1 1 1 89 1 57 1
843 0 5 323 1 37 1 188 1 292 1 393 1
844 0 5 324 1 155 1 212 1 476 1 404 1
845 0 5 325 1 135 1 409 1 390 1 177 1
846 0 5 326 1 53 1 389 1 152 1 466 1
847 0 5 327 1 92 1 367 1 15 1 184 1
848 0 5 328 1 390 1 30 1 135 1 104 1
849 0 5 329 1 55 1 289 1 375 1 484 1
850 0 5 330 1 25 1 488 1 148 1 65 1
851 0 5 331 1 101 1 307 1 348 1 206 1
852 0 5 332 1 436 1 257 1 479 1 359 1
853 0 5 333 1 281 1 118 1 244 1 469 1
854 0 5 334 1 294 1 193 1 91 1 298 1
855 0 5 335 1 481 1 74 1 480 1 98 1
856 0 5 336 1 490 1 428 1 398 1 395 1
857 0 5 337 1 91 1 351 1 472 1 186 1
858 0 5 338 1 485 1 187 1 180 1 26 1
859 0 5 339 1 1 1 268 1 355 1 231 1
860 0 5 340 1 64 1 498 1 443 1 493 1
861 0 5 341 1 95 1 461 1 105 1 271 1
862 0 5 342 1 198 1 79 1 461 1 341 1
863 0 5 343 1 236 1 192 1 441 1 165 1
864 0 5 344 1 460 1 303 1 189 1 256 1
865 0 5 345 1 160 1 259 1 157 1 145 1
866 0 5 346 1 379 1 493 1 64 1 443 1
867 0 5 347 1 19 1 60 1 473 1 44 1
868 0 5 348 1 331 1 307 1 283 1 264 1
869 0 5 349 1 214 1 20 1 486 1 424 1
870 0 5 350 1 368 1 129 1 97 1 133 1
871 0 5 351 1 68 1 3 1 472 1 337 1
872 0 5 352 1 295 1 117 1 449 1 195 1
873 0 5 353 1 432 1 94 1 490 1 382 1
874 0 5 354 1 482 1 478 1 207 1 20 1
875 0 5 355 1 1 1 126 1 268 1 89 1
876 0 5 356 1 246 1 15 1 47 1 321 1
877 0 5 357 1 355 1 268 1 231 1 158 1
878 0 5 358 1 233 1 309 1 227 1 489 1
879 0 5 359 1 479 1 332 1 27 1 166 1
880 0 5 360 1 167 1 283 1 74 1 220 1
881 0 5 361 1 254 1 29 1 115 1 356 1
882 0 5 362 1 137 1 259 1 145 1 345 1
883 0 5 363 1 448 1 370 1 466 1 132 1
884 0 5 364 1 255 1 403 1 279 1 369 1
885 0 5 365 1 272 1 270 1 303 1 234 1
886 0 5 366 1 434 1 121 1 484 1 51 1
887 0 5 367 1 327 1 184 1 263 1 111 1
888 0 5 368 1 129 1 97 1 350 1 306 1
889 0 5 369 1 155 1 253 1 255 1 358 1
890 0 5 370 1 326 1 53 1 466 1 152 1
891 0 5 371 1 194 1 249 1 285 1 260 1
892 0 5 372 1 494 1 13 1 173 1 174 1
893 0 5 373 1 170 1 200 1 79 1 115 1
894 0 5 374 1 103 1 295 1 195 1 84 1
895 0 5 375 1 93 1 69 1 329 1 501 1
896 0 5 376 1 119 1 396 1 80 1 312 1
897 0 5 377 1 210 1 436 1 359 1 166 1
898 0 5 378 1 300 1 420 1 274 1 87 1
899 0 5 379 1 39 1 346 1 435 1 443 1
900 0 5 380 1 247 1 238 1 375 1 127 1
901 0 5 381 1 203 1 34 1 270 1 161 1
902 0 5 382 1 253 1 241 1 199 1 369 1
903 0 5 383 1 222 1 288 1 275 1 185 1
904 0 5 384 1 195 1 223 1 450 1 84 1
905 0 5 385 1 79 1 168 1 373 1 170 1
906 0 5 386 1 296 1 444 1 31 1 110 1
907 0 5 387 1 498 1 208 1 133 1 496 1
908 0 5 388 1 35 1 54 1 26 1 154 1
909 0 5 389 1 152 1 240 1 53 1 107 1
910 0 5 390 1 66 1 328 1 431 1 325 1
911 0 5 391 1 467 1 114 1 157 1 183 1
912 0 5 392 1 54 1 278 1 450 1 384 1
913 0 5 393 1 419 1 437 1 219 1 292 1
914 0 5 394 1 205 1 442 1 139 1 33 1
915 0 5 395 1 94 1 299 1 199 1 490 1
916 0 5 396 1 376 1 80 1 312 1 119 1
917 0 5 397 1 150 1 409 1 124 1 309 1
918 0 5 398 1 22 1 10 1 7 1 113 1
919 0 5 399 1 427 1 225 1 416 1 268 1
920 0 5 400 1 228 1 127 1 62 1 319 1
921 0 5 401 1 29 1 321 1 47 1 15 1
922 0 5 402 1 215 1 89 1 322 1 261 1
923 0 5 403 1 428 1 414 1 490 1 336 1
924 0 5 404 1 324 1 476 1 247 1 212 1
925 0 5 405 1 459 1 32 1 280 1 93 1
926 0 5 406 1 474 1 142 1 312 1 376 1
927 0 5 407 1 153 1 454 1 77 1 319 1
928 0 5 408 1 159 1 181 1 104 1 406 1
929 0 5 409 1 397 1 325 1 135 1 150 1
930 0 5 410 1 455 1 57 1 357 1 445 1
931 0 5 411 1 410 1 265 1 124 1 489 1
932 0 5 412 1 131 1 83 1 171 1 293 1
933 0 5 413 1 90 1 491 1 139 1 442 1
934 0 5 414 1 279 1 40 1 470 1 428 1
935 0 5 415 1 51 1 69 1 121 1 182 1
936 0 5 416 1 225 1 427 1 399 1 63 1
937 0 5 417 1 391 1 467 1 114 1 157 1
938 0 5 418 1 486 1 349 1 294 1 2 1
939 0 5 419 1 188 1 323 1 393 1 219 1
940 0 5 420 1 455 1 300 1 28 1 378 1
941 0 5 421 1 208 1 496 1 452 1 387 1
942 0 5 422 1 172 1 146 1 234 1 243 1
943 0 5 423 1 1 1 322 1 402 1 89 1
944 0 5 424 1 85 1 20 1 349 1 482 1
945 0 5 425 1 151 1 353 1 432 1 364 1
946 0 5 426 1 267 1 144 1 240 1 82 1
947 0 5 427 1 63 1 266 1 399 1 442 1
948 0 5 428 1 40 1 336 1 398 1 490 1
949 0 5 429 1 221 1 4 1 311 1 73 1
950 0 5 430 1 75 1 165 1 66 1 30 1
951 0 5 431 1 390 1 328 1 165 1 229 1
952 0 5 432 1 94 1 353 1 457 1 490 1
953 0 5 433 1 56 1 501 1 415 1 182 1
954 0 5 434 1 291 1 125 1 366 1 435 1
955 0 5 435 1 434 1 39 1 291 1 352 1
956 0 5 436 1 359 1 479 1 257 1 332 1
957 0 5 437 1 483 1 292 1 74 1 101 1
958 0 5 438 1 144 1 148 1 217 1 230 1
959 0 5 439 1 227 1 80 1 233 1 279 1
960 0 5 440 1 87 1 277 1 453 1 236 1
961 0 5 441 1 149 1 402 1 9 1 423 1
962 0 5 442 1 394 1 139 1 491 1 63 1
963 0 5 443 1 18 1 153 1 340 1 14 1
964 0 5 444 1 31 1 296 1 470 1 110 1
965 0 5 445 1 57 1 158 1 455 1 420 1
966 0 5 446 1 147 1 256 1 1 1 344 1
967 0 5 447 1 171 1 83 1 412 1 109 1
968 0 5 448 1 190 1 5 1 370 1 363 1
969 0 5 449 1 223 1 84 1 61 1 237 1
970 0 5 450 1 392 1 384 1 226 1 54 1
971 0 5 451 1 461 1 95 1 467 1 183 1
972 0 5 452 1 421 1 208 1 496 1 387 1
973 0 5 453 1 440 1 456 1 290 1 245 1
974 0 5 454 1 127 1 407 1 484 1 55 1
975 0 5 455 1 445 1 57 1 420 1 158 1
976 0 5 456 1 441 1 245 1 440 1 9 1
977 0 5 457 1 395 1 94 1 490 1 199 1
978 0 5 458 1 44 1 266 1 63 1 347 1
979 0 5 459 1 405 1 280 1 299 1 99 1
980 0 5 460 1 189 1 270 1 381 1 303 1
981 0 5 461 1 95 1 215 1 342 1 79 1
982 0 5 462 1 6 1 50 1 318 1 250 1
983 0 5 463 1 239 1 160 1 345 1 137 1
984 0 5 464 1 102 1 260 1 306 1 76 1
985 0 5 465 1 258 1 136 1 187 1 68 1
986 0 5 466 1 370 1 132 1 224 1 217 1
987 0 5 467 1 114 1 391 1 183 1 451 1
988 0 5 468 1 186 1 131 1 293 1 282 1
989 0 5 469 1 118 1 281 1 142 1 396 1
990 0 5 470 1 414 1 279 1 233 1 31 1
991 0 5 471 1 349 1 128 1 486 1 242 1
992 0 5 472 1 337 1 351 1 186 1 91 1
993 0 5 473 1 60 1 19 1 33 1 347 1
994 0 5 474 1 406 1 408 1 204 1 104 1
995 0 5 475 1 387 1 18 1 340 1 208 1
996 0 5 476 1 212 1 324 1 247 1 404 1
997 0 5 477 1 130 1 234 1 168 1 45 1
998 0 5 478 1 413 1 207 1 273 1 354 1
999 0 5 479 1 377 1 359 1 257 1 140 1
1000 0 5 480 1 481 1 122 1 471 1 128 1
1001 0 5 481 1 480 1 335 1 154 1 471 1
1002 0 5 482 1 478 1 273 1 349 1 20 1
1003 0 5 483 1 206 1 292 1 360 1 167 1
1004 0 5 484 1 55 1 65 1 454 1 329 1
1005 0 5 485 1 8 1 310 1 201 1 242 1
1006 0 5 486 1 214 1 418 1 35 1 262 1
1007 0 5 487 1 169 1 372 1 13 1 475 1
1008 0 5 488 1 330 1 209 1 25 1 224 1
1009 0 5 489 1 52 1 320 1 309 1 410 1
1010 0 5 490 1 336 1 457 1 395 1 199 1
1011 0 5 491 1 442 1 139 1 394 1 205 1
1012 0 5 492 1 73 1 284 1 221 1 67 1
1013 0 5 493 1 346 1 64 1 97 1 340 1
1014 0 5 494 1 173 1 372 1 120 1 13 1
1015 0 5 495 1 243 1 422 1 179 1 123 1
1016 0 5 496 1 82 1 133 1 208 1 387 1
1017 0 5 497 1 38 1 439 1 78 1 302 1
1018 0 5 498 1 129 1 475 1 387 1 133 1
1019 0 5 499 1 156 1 472 1 270 1 365 1
1020 0 5 500 1 47 1 134 1 321 1 29 1
1021 0 5 501 1 415 1 433 1 56 1 182 1
1022 0 5 502 0 520 1 519 1 518 1 517 1
1023 0 5 503 0 520 1 519 1 518 1 517 1
1024 0 5 504 0 520 1 519 1 518 1 517 1
1025 0 5 505 0 520 1 519 1 518 1 517 1
1026 0 5 506 0 520 1 519 1 518 1 517 1
1027 0 5 507 0 520 1 519 1 518 1 517 1
1028 0 5 508 0 520 1 519 1 518 1 517 1
1029 0 5 509 0 520 1 519 1 518 1 517 1
1030 0 5 510 0 520 1 519 1 518 1 517 1
1031 0 5 511 0 520 1 519 1 518 1 517 1
1032 0 5 512 0 520 1 519 1 518 1 517 1
1033 0 5 513 0 520 1 519 1 518 1 517 1
1034 0 5 514 0 520 1 519 1 518 1 517 1
1035 0 5 515 0 520 1 519 1 518 1 517 1
1036 0 5 516 0 520 1 519 1 518 1 517 1
1037 0 5 517 0 520 1 519 1 518 1 517 1
1038 0 5 518 0 520 1 519 1 518 1 517 1
1039 0 5 519 0 520 1 519 1 518 1 517 1
1040 0 5 520 0 520 1 519 1 518 1 517 1
-1
EOF
